Linux optc-09-11 4.15.0-58-generic #64-Ubuntu SMP Tue Aug 6 11:12:41 UTC 2019 x86_64 x86_64 x86_64 GNU/Linux

top - 01:29:38 up 1 day, 15:30,  0 users,  load average: 0,21, 0,50, 0,67
Tasks: 290 gesamt,   1 laufend, 149 schlafend,   0 gestoppt,   0 Zombie
%CPU(s):  5,9 be,  0,3 sy,  0,0 ni, 93,8 un,  0,0 wa,  0,0 hi,  0,0 si,  0,0 st
KiB Spch : 97514992 gesamt, 95492752 frei,   646324 belegt,  1375920 Puff/Cache
KiB Swap:  8388604 gesamt,  8388604 frei,        0 belegt. 96127624 verfü Spch 

  PID USER      PR  NI    VIRT    RES    SHR S  %CPU %MEM     ZEIT+ BEFEHL
23165 bzfhende  20   0   52664   4216   3468 R   6,2  0,0   0:00.01 top
    1 root      20   0  233816   9536   6820 S   0,0  0,0   0:12.84 systemd
    2 root      20   0       0      0      0 S   0,0  0,0   0:00.15 kthreadd
    3 root      20   0       0      0      0 I   0,0  0,0   0:00.00 kworker/0:0
    4 root       0 -20       0      0      0 I   0,0  0,0   0:00.00 kworker/0:+
    6 root      20   0       0      0      0 I   0,0  0,0   0:00.00 kworker/u3+
    7 root       0 -20       0      0      0 I   0,0  0,0   0:00.00 mm_percpu_+
    8 root      20   0       0      0      0 S   0,0  0,0   0:00.01 ksoftirqd/0

hard time limit: 04:10:00
hard mem limit: 55100

SLURM jobID: 2182780

@01 /nfs/optimi/kombadon/IP/coral/neos-824661.mps.gz ===========
-----------------------------
Fr 23. Aug 01:29:38 CEST 2019
-----------------------------
@03 1566516578
@05 7200
SCIP version 6.0.0 [precision: 8 byte] [memory: block] [mode: optimized] [LP solver: CPLEX 12.8.0.0] [GitHash: 41ab6e0014]
Copyright (C) 2002-2018 Konrad-Zuse-Zentrum fuer Informationstechnik Berlin (ZIB)

External codes: 
  Readline 7.0         GNU library for command line editing (gnu.org/s/readline)
  CPLEX 12.8.0.0       Linear Programming Solver developed by IBM (www.cplex.com)
  CppAD 20180000.0     Algorithmic Differentiation of C++ algorithms developed by B. Bell (www.coin-or.org/CppAD)
  ZLIB 1.2.11          General purpose compression library by J. Gailly and M. Adler (zlib.net)
  GMP 6.1.2            GNU Multiple Precision Arithmetic Library developed by T. Granlund (gmplib.org)
  bliss 0.73p          Computing Graph Automorphism Groups by T. Junttila and P. Kaski (http://www.tcs.hut.fi/Software/bliss/)

user parameter file <scip.set> not found - using default parameters

SCIP> 
SCIP> set load /home/optimi/bzfhende/opti/scip-opti/check/../settings/enable_treeeprofile.set
loaded parameter file </home/optimi/bzfhende/opti/scip-opti/check/../settings/enable_treeprofile.set>
SCIP> set misc referencevalue 33
misc/referencevalue = 33
SCIP> set limits time 7200
limits/time = 7200
SCIP> set limits nodes 2100000000
limits/nodes = 2100000000
SCIP> set limits memory 50000
limits/memory = 50000
SCIP> set lp advanced threads 1
lp/threads = 1
SCIP> set timing clocktype 1
timing/clocktype = 1
SCIP> set display freq 10000
display/freq = 10000
SCIP> set memory savefac 1.0
memory/savefac = 1
SCIP> set save /home/optimi/bzfhende/opti/scip-opti/check/treesize.estimation.jouurnal.3/bzfhende.MMMc.316_neos-824661.scip.M640.enable_treeprofile.set
saved parameter file </home/optimi/bzfhende/opti/scip-opti/check/treesize.estimation.journal.3/bzfhende.MMMc.316_neos-824661.scip.M640.enable_treeprofile.set>
SCIP> read /nfs/optimi/kombadon/IP/coral/neos-824661.mps.gz

read problem </nfs/optimi/kombadon/IP/coral/neos-824661.mps.gz>
============

original problem has 45390 variables (15640 bin, 0 int, 0 impl, 29750 cont) and 18804 constraints
SCIP> display parameters

number of parameters = 2448
non-default parameter settings:
display/freq = 10000
limits/time = 7200
limits/nodes = 2100000000
limits/memory = 50000
lp/threads = 1
memory/savefac = 1
misc/referencevalue = 33
presolving/maxrestarts = 0
estimates/profile/enabled = TRUE
estimates/profile/maxdepthfactor = 10
estimates/profile/freq = 0

SCIP> optimize

Activating tree profile data collection
presolving:
(round 1, fast)       15470 del vars, 0 del conss, 0 add conss, 14280 chg bounds, 0 chg sides, 2210 chg coeffs, 0 upgd conss, 0 impls, 2234 clqs
(round 2, fast)       15470 del vars, 0 del conss, 0 add conss, 14280 chg bounds, 14280 chg sides, 2210 chg coeffs, 0 upgd conss, 0 impls, 2234 clqs
(round 3, exhaustive) 15470 del vars, 1 del conss, 0 add conss, 14280 chg bounds, 14281 chg sides, 2210 chg coeffs, 2404 upgd conss, 0 impls, 2234 clqs
(round 4, medium)     15470 del vars, 2211 del conss, 2210 add conss, 14280 chg bounds, 14281 chg sides, 2210 chg coeffs, 2404 upgd conss, 0 impls, 19913 clqs
(round 5, exhaustive) 15470 del vars, 2381 del conss, 2210 add conss, 14280 chg bounds, 14281 chg sides, 2210 chg coeffs, 2404 upgd conss, 0 impls, 19913 clqs
   (1.8s) probing: 1000/15640 (6.4%) - 0 fixings, 0 aggregations, 6682 implications, 0 bound changes
   (1.8s) probing: 1001/15640 (6.4%) - 0 fixings, 0 aggregations, 6695 implications, 0 bound changes
   (1.8s) probing aborted: 1000/1000 successive useless probings
presolving (6 rounds: 6 fast, 4 medium, 3 exhaustive):
 15470 deleted vars, 2381 deleted constraints, 2210 added constraints, 14280 tightened bounds, 0 added holes, 14281 changed sides, 2210 changed coefficients
 3605 implications, 23003 cliques
presolved problem has 29920 variables (15640 bin, 0 int, 0 impl, 14280 cont) and 18633 constraints
   2234 constraints of type <setppc>
  16399 constraints of type <linear>
transformed objective value is always integral (scale: 1)
Presolving Time: 1.77

 time | node  | left  |LP iter|LP it/n| mem |mdpt |frac |vars |cons |cols |rows |cuts |confs|strbr|  dualbound   | primalbound  |  gap   
k 2.2s|     1 |     0 |     0 |     - | 215M|   0 |   - |  29k|  18k|  29k|  18k|   0 |   0 |   0 | 1.800000e+01 | 1.700000e+02 | 844.44%
b 2.3s|     1 |     0 |     0 |     - | 214M|   0 |   - |  29k|  18k|  29k|  18k|   0 |   0 |   0 | 1.800000e+01 | 6.400000e+01 | 255.56%
  4.4s|     1 |     0 | 11171 |     - | 215M|   0 | 422 |  29k|  18k|  29k|  18k|   0 |   0 |   0 | 3.300000e+01 | 6.400000e+01 |  93.94%
  6.9s|     1 |     0 | 16729 |     - | 222M|   0 | 184 |  29k|  18k|  29k|  18k|  21 |   1 |   0 | 3.300000e+01 | 6.400000e+01 |  93.94%
s 7.0s|     1 |     0 | 16729 |     - | 222M|   0 | 184 |  29k|  18k|  29k|  18k|  21 |   2 |   0 | 3.300000e+01 | 4.100000e+01 |  24.24%
  8.8s|     1 |     0 | 22170 |     - | 224M|   0 | 211 |  29k|  18k|  29k|  18k|  30 |   2 |   0 | 3.300000e+01 | 4.100000e+01 |  24.24%
  9.5s|     1 |     0 | 23702 |     - | 228M|   0 | 132 |  29k|  18k|  29k|  18k|  39 |   3 |   0 | 3.300000e+01 | 4.100000e+01 |  24.24%
 10.2s|     1 |     0 | 25557 |     - | 232M|   0 | 136 |  29k|  18k|  29k|  18k|  44 |   4 |   0 | 3.300000e+01 | 4.100000e+01 |  24.24%
 10.8s|     1 |     0 | 27097 |     - | 235M|   0 |  60 |  29k|  18k|  29k|  18k|  57 |   4 |   0 | 3.300000e+01 | 4.100000e+01 |  24.24%
 11.0s|     1 |     0 | 27099 |     - | 239M|   0 |  56 |  29k|  18k|  29k|  18k|  58 |   4 |   0 | 3.300000e+01 | 4.100000e+01 |  24.24%
 11.2s|     1 |     0 | 27185 |     - | 243M|   0 |  42 |  29k|  18k|  29k|  18k|  61 |   4 |   0 | 3.300000e+01 | 4.100000e+01 |  24.24%
s11.2s|     1 |     0 | 27185 |     - | 243M|   0 |  42 |  29k|  18k|  29k|  18k|  61 |   4 |   0 | 3.300000e+01 | 3.400000e+01 |   3.03%
 11.7s|     1 |     0 | 28174 |     - | 245M|   0 | 115 |  29k|  18k|  29k|  18k|  62 |   4 |   0 | 3.300000e+01 | 3.400000e+01 |   3.03%
 12.2s|     1 |     0 | 28899 |     - | 247M|   0 |  38 |  29k|  18k|  29k|  18k|  63 |   5 |   0 | 3.300000e+01 | 3.400000e+01 |   3.03%
 12.6s|     1 |     0 | 29616 |     - | 251M|   0 |  50 |  29k|  18k|  29k|  18k|  64 |   5 |   0 | 3.300000e+01 | 3.400000e+01 |   3.03%
 time | node  | left  |LP iter|LP it/n| mem |mdpt |frac |vars |cons |cols |rows |cuts |confs|strbr|  dualbound   | primalbound  |  gap   
 13.7s|     1 |     0 | 30503 |     - | 253M|   0 |  52 |  29k|  18k|  29k|  18k|  65 |   6 |   0 | 3.300000e+01 | 3.400000e+01 |   3.03%
E14.9s|     1 |     0 | 32018 |     - | 260M|   0 |   - |  29k|  18k|  29k|  18k|  65 |   7 |   0 | 3.300000e+01 | 3.300000e+01 |   0.00%
SCIP nodes: 1 Estimation: -1
 14.9s|     1 |     0 | 32018 |     - | 260M|   0 |   - |  29k|  18k|  29k|  18k|  65 |   7 |   0 | 3.300000e+01 | 3.300000e+01 |   0.00%
Report 1
Time Elapsed: 14.91
  Tree Data        : 1 nodes (1 visited, 0 inner, 1 leaves, 0 open), progress: 1.0000
Tree Estimation    :       estim       value       trend  resolution      smooth
  wbe              :          -1           -           -           -           -
  tree profile     :          -1           -           -           -           -
  gap              :           1     1.00000     1.00000           1           1
  progress         :           1     1.00000     1.00000           1           1
  leaf-frequency   :           1     0.50000     1.00000           1           1
  ssg              :           1     0.00000    -1.00000           1           1
  open-nodes       :           1     0.00000     0.00000           1           1
End of Report 1


SCIP Status        : problem is solved [optimal solution found]
Solving Time (sec) : 14.91
Solving Nodes      : 1
Primal Bound       : +3.30000000000000e+01 (6 solutions)
Dual Bound         : +3.30000000000000e+01
Gap                : 0.00 %

SCIP> display statistics

SCIP Status        : problem is solved [optimal solution found]
Total Time         :      15.02
  solving          :      14.91
  presolving       :       1.77 (included in solving)
  reading          :       0.11
  copying          :       0.06 (1 #copies) (minimal 0.06, maximal 0.06, average 0.06)
Original Problem   :
  Problem name     : file
  Variables        : 45390 (15640 binary, 0 integer, 0 implicit integer, 29750 continuous)
  Constraints      : 18804 initial, 18804 maximal
  Objective        : minimize, 170 non-zeros (abs.min = 1, abs.max = 1)
Presolved Problem  :
  Problem name     : t_file
  Variables        : 29920 (15640 binary, 0 integer, 0 implicit integer, 14280 continuous)
  Constraints      : 18633 initial, 18642 maximal
  Objective        : minimize, 170 non-zeros (abs.min = 1, abs.max = 1)
Presolvers         :   ExecTime  SetupTime  Calls  FixedVars   AggrVars   ChgTypes  ChgBounds   AddHoles    DelCons    AddCons   ChgSides   ChgCoefs
  boundshift       :       0.00       0.00      0          0          0          0          0          0          0          0          0          0
  convertinttobin  :       0.00       0.00      0          0          0          0          0          0          0          0          0          0
  domcol           :       0.04       0.00      1          0          0          0          0          0          0          0          0          0
  dualagg          :       0.00       0.00      0          0          0          0          0          0          0          0          0          0
  dualcomp         :       0.01       0.00      1          0          0          0          0          0          0          0          0          0
  dualinfer        :       0.00       0.00      0          0          0          0          0          0          0          0          0          0
  gateextraction   :       0.00       0.00      0          0          0          0          0          0          0          0          0          0
  implics          :       0.00       0.00      4          0          0          0          0          0          0          0          0          0
  inttobinary      :       0.00       0.00      0          0          0          0          0          0          0          0          0          0
  qpkktref         :       0.00       0.00      0          0          0          0          0          0          0          0          0          0
  redvub           :       0.00       0.00      0          0          0          0          0          0          0          0          0          0
  sparsify         :       0.07       0.00      1          0          0          0          0          0          0          0          0          0
  stuffing         :       0.00       0.00      0          0          0          0          0          0          0          0          0          0
  symbreak         :       0.00       0.00      0          0          0          0          0          0          0          0          0          0
  symmetry         :       0.00       0.00      0          0          0          0          0          0          0          0          0          0
  trivial          :       0.00       0.00      6          0          0          0          0          0          0          0          0          0
  tworowbnd        :       0.00       0.00      0          0          0          0          0          0          0          0          0          0
  dualfix          :       0.01       0.00      6       1190          0          0          0          0          0          0          0          0
  genvbounds       :       0.00       0.00      0          0          0          0          0          0          0          0          0          0
  orbitalfixing    :       0.00       0.00      0          0          0          0          0          0          0          0          0          0
  probing          :       1.34       0.00      1          0          0          0          0          0          0          0          0          0
  pseudoobj        :       0.00       0.00      0          0          0          0          0          0          0          0          0          0
  vbounds          :       0.00       0.00      2          0          0          0          0          0          0          0          0          0
  knapsack         :       0.01       0.00      2          0          0          0          0          0       2210       2210          0          0
  setppc           :       0.03       0.00      8          0          0          0          0          0        170          0          0          0
  linear           :       0.19       0.02      8          0      14280          0      14280          0          1          0      14281       2210
  logicor          :       0.00       0.00      0          0          0          0          0          0          0          0          0          0
  benders          :       0.00       0.00      0          0          0          0          0          0          0          0          0          0
  components       :       0.01       0.00      1          0          0          0          0          0          0          0          0          0
  root node        :          -          -      -          0          -          -          0          -          -          -          -          -
Constraints        :     Number  MaxNumber  #Separate #Propagate    #EnfoLP    #EnfoRelax  #EnfoPS    #Check   #ResProp    Cutoffs    DomReds       Cuts    Applied      Conss   Children
  benderslp        :          0          0          0          0          0          0          0         21          0          0          0          0          0          0          0
  integral         :          0          0          0          0          0          0          0         21          0          0          0          0          0          0          0
  setppc           :       2234+      2242         12      18126          0          0          0         15          7          0          0          0          0          0          0
  linear           :      16399      16399         12      18129          0          0          0          6          7         18          0          0          0          0          0
  logicor          :          0+         1         12          4          0          0          0          0          0          0          0          0          0          0          0
  benders          :          0          0          0          0          0          0          0          7          0          0          0          0          0          0          0
  countsols        :          0          0          0          0          0          0          0          7          0          0          0          0          0          0          0
  components       :          0          0          0          0          0          0          0          0          0          0          0          0          0          0          0
Constraint Timings :  TotalTime  SetupTime   Separate  Propagate     EnfoLP     EnfoPS     EnfoRelax   Check    ResProp    SB-Prop
  benderslp        :       0.00       0.00       0.00       0.00       0.00       0.00       0.00       0.00       0.00       0.00
  integral         :       0.01       0.00       0.00       0.00       0.00       0.00       0.00       0.01       0.00       0.00
  setppc           :       0.08       0.00       0.00       0.08       0.00       0.00       0.00       0.00       0.00       0.00
  linear           :       0.38       0.02       0.27       0.05       0.00       0.00       0.00       0.04       0.00       0.00
  logicor          :       0.00       0.00       0.00       0.00       0.00       0.00       0.00       0.00       0.00       0.00
  benders          :       0.00       0.00       0.00       0.00       0.00       0.00       0.00       0.00       0.00       0.00
  countsols        :       0.00       0.00       0.00       0.00       0.00       0.00       0.00       0.00       0.00       0.00
  components       :       0.00       0.00       0.00       0.00       0.00       0.00       0.00       0.00       0.00       0.00
Propagators        : #Propagate   #ResProp    Cutoffs    DomReds
  dualfix          :          2          0          0          0
  genvbounds       :          0          0          0          0
  nlobbt           :          0          0          0          0
  obbt             :          0          0          0          0
  orbitalfixing    :          0          0          0          0
  probing          :          0          0          0          0
  pseudoobj        :         15          0          0          0
  redcost          :         13          0          0          0
  rootredcost      :          0          0          0          0
  vbounds          :      15615          0          0          0
Propagator Timings :  TotalTime  SetupTime   Presolve  Propagate    ResProp    SB-Prop
  dualfix          :       0.02       0.00       0.01       0.01       0.00       0.00
  genvbounds       :       0.00       0.00       0.00       0.00       0.00       0.00
  nlobbt           :       0.00       0.00       0.00       0.00       0.00       0.00
  obbt             :       0.00       0.00       0.00       0.00       0.00       0.00
  orbitalfixing    :       0.01       0.00       0.00       0.01       0.00       0.00
  probing          :       1.34       0.00       1.34       0.00       0.00       0.00
  pseudoobj        :       0.04       0.00       0.00       0.04       0.00       0.00
  redcost          :       0.02       0.00       0.00       0.02       0.00       0.00
  rootredcost      :       0.01       0.00       0.00       0.01       0.00       0.00
  vbounds          :       0.01       0.00       0.00       0.01       0.00       0.00
Conflict Analysis  :       Time      Calls    Success    DomReds  Conflicts   Literals    Reconvs ReconvLits   Dualrays   Nonzeros   LP Iters   (pool size: [10000,10000])
  propagation      :       0.00          7          7          -          7        2.0          0        0.0          -          -          -
  infeasible LP    :       0.00          1          1          -          0        0.0          0        0.0          1        7.0          0
  bound exceed. LP :       0.00          0          0          -          0        0.0          0        0.0          0        0.0          0
  strong branching :       0.00          0          0          -          0        0.0          0        0.0          -          -          0
  pseudo solution  :       0.00          0          0          -          0        0.0          0        0.0          -          -          -
  applied globally :       0.00          -          -          0          7        2.0          -          -          1          -          -
  applied locally  :          -          -          -          0          0        0.0          -          -          0          -          -
Separators         :   ExecTime  SetupTime      Calls    Cutoffs    DomReds       Cuts    Applied      Conss
  cut pool         :       0.02                    22          -          -        338          -          -    (maximal pool size: 827)
  aggregation      :       0.48       0.00         12          0          0          0          0          0
  cgmip            :       0.00       0.00          0          0          0          0          0          0
  clique           :       0.36       0.00         12          0          0          0          1          0
  closecuts        :       0.00       0.00          0          0          0          0          0          0
  cmir             :       0.00       0.00          0          0          0          0          0          0
  convexproj       :       0.00       0.00          0          0          0          0          0          0
  disjunctive      :       0.00       0.00          0          0          0          0          0          0
  eccuts           :       0.00       0.00          0          0          0          0          0          0
  flowcover        :       0.00       0.00          0          0          0          0          0          0
  gauge            :       0.00       0.00          0          0          0          0          0          0
  gomory           :       0.39       0.00         10          0          0          0         39          0
  impliedbounds    :       0.00       0.00         12          0          0          0          0          0
  intobj           :       0.00       0.00          0          0          0          0          0          0
  mcf              :       0.01       0.00          1          0          0          0          0          0
  oddcycle         :       0.00       0.00          0          0          0          0          0          0
  rapidlearning    :       0.00       0.00          0          0          0          0          0          0
  strongcg         :       0.37       0.00         12          0          0          0         22          0
  zerohalf         :       0.14       0.00         12          0          0          0          3          0
Pricers            :   ExecTime  SetupTime      Calls       Vars
  problem variables:       0.00          -          0          0
Branching Rules    :   ExecTime  SetupTime   BranchLP  BranchExt   BranchPS    Cutoffs    DomReds       Cuts      Conss   Children
  allfullstrong    :       0.00       0.00          0          0          0          0          0          0          0          0
  cloud            :       0.00       0.00          0          0          0          0          0          0          0          0
  distribution     :       0.00       0.00          0          0          0          0          0          0          0          0
  fullstrong       :       0.00       0.00          0          0          0          0          0          0          0          0
  inference        :       0.00       0.00          0          0          0          0          0          0          0          0
  leastinf         :       0.00       0.00          0          0          0          0          0          0          0          0
  lookahead        :       0.00       0.00          0          0          0          0          0          0          0          0
  mostinf          :       0.00       0.00          0          0          0          0          0          0          0          0
  multaggr         :       0.00       0.00          0          0          0          0          0          0          0          0
  nodereopt        :       0.00       0.00          0          0          0          0          0          0          0          0
  pscost           :       0.00       0.00          0          0          0          0          0          0          0          0
  random           :       0.00       0.00          0          0          0          0          0          0          0          0
  relpscost        :       0.00       0.00          0          0          0          0          0          0          0          0
Primal Heuristics  :   ExecTime  SetupTime      Calls      Found       Best
  LP solutions     :       0.00          -          -          0          0
  relax solutions  :       0.00          -          -          0          0
  pseudo solutions :       0.00          -          -          0          0
  strong branching :       0.00          -          -          0          0
  actconsdiving    :       0.00       0.00          0          0          0
  alns             :       0.00       0.00          0          0          0
  bound            :       0.00       0.00          0          0          0
  clique           :       0.14       0.00          1          0          0
  coefdiving       :       0.00       0.00          0          0          0
  completesol      :       0.00       0.00          0          0          0
  conflictdiving   :       0.00       0.00          0          0          0
  crossover        :       0.00       0.00          0          0          0
  dins             :       0.00       0.00          0          0          0
  distributiondivin:       0.00       0.00          0          0          0
  dualval          :       0.00       0.00          0          0          0
  farkasdiving     :       0.00       0.00          0          0          0
  feaspump         :       0.89       0.00          1          1          0
  fixandinfer      :       0.00       0.00          0          0          0
  fracdiving       :       0.00       0.00          0          0          0
  gins             :       0.00       0.00          0          0          0
  guideddiving     :       0.00       0.00          0          0          0
  indicator        :       0.00       0.00          0          0          0
  intdiving        :       0.00       0.00          0          0          0
  intshifting      :       0.05       0.00          1          0          0
  linesearchdiving :       0.00       0.00          0          0          0
  localbranching   :       0.00       0.00          0          0          0
  locks            :       0.20       0.00          1          1          1
  lpface           :       0.00       0.00          0          0          0
  mpec             :       0.00       0.00          0          0          0
  multistart       :       0.00       0.00          0          0          0
  mutation         :       0.00       0.00          0          0          0
  nlpdiving        :       0.00       0.00          0          0          0
  objpscostdiving  :       0.00       0.00          0          0          0
  octane           :       0.00       0.00          0          0          0
  ofins            :       0.00       0.00          0          0          0
  oneopt           :       0.03       0.00          3          1          1
  proximity        :       0.00       0.00          0          0          0
  pscostdiving     :       0.00       0.00          0          0          0
  randrounding     :       0.03       0.00         12          0          0
  rens             :       0.18       0.00          1          1          1
  reoptsols        :       0.00       0.00          0          0          0
  repair           :       0.00       0.00          0          0          0
  rins             :       0.00       0.00          0          0          0
  rootsoldiving    :       0.00       0.00          0          0          0
  rounding         :       0.01       0.00         12          0          0
  shiftandpropagate:       0.00       0.00          0          0          0
  shifting         :       0.06       0.00         12          2          2
  simplerounding   :       0.00       0.00         12          0          0
  subnlp           :       0.00       0.00          0          0          0
  trivial          :       0.06       0.00          2          0          0
  trivialnegation  :       0.00       0.00          0          0          0
  trysol           :       0.00       0.00          0          0          0
  twoopt           :       0.00       0.00          0          0          0
  undercover       :       0.00       0.00          0          0          0
  vbounds          :       0.00       0.00          0          0          0
  veclendiving     :       0.00       0.00          0          0          0
  zeroobj          :       0.00       0.00          0          0          0
  zirounding       :       0.00       0.00          1          0          0
  other solutions  :          -          -          -          0          -
Diving Statistics  :      Calls      Nodes   LP Iters Backtracks  Conflicts   MinDepth   MaxDepth   AvgDepth  RoundSols  NLeafSols  MinSolDpt  MaxSolDpt  AvgSolDpt
  actconsdiving    :          0          -          -          -          -          -          -          -          -          -          -          -          -
  coefdiving       :          0          -          -          -          -          -          -          -          -          -          -          -          -
  conflictdiving   :          0          -          -          -          -          -          -          -          -          -          -          -          -
  distributiondivin:          0          -          -          -          -          -          -          -          -          -          -          -          -
  farkasdiving     :          0          -          -          -          -          -          -          -          -          -          -          -          -
  fracdiving       :          0          -          -          -          -          -          -          -          -          -          -          -          -
  guideddiving     :          0          -          -          -          -          -          -          -          -          -          -          -          -
  linesearchdiving :          0          -          -          -          -          -          -          -          -          -          -          -          -
  pscostdiving     :          0          -          -          -          -          -          -          -          -          -          -          -          -
  veclendiving     :          0          -          -          -          -          -          -          -          -          -          -          -          -
Neighborhoods      :      Calls  SetupTime  SolveTime SolveNodes       Sols       Best       Exp3  EpsGreedy        UCB TgtFixRate  Opt  Inf Node Stal  Sol  Usr Othr Actv
  rens             :          0       0.00       0.00          0          0          0    0.00000   -1.00000    1.00000      0.900    0    0    0    0    0    0    0    1
  rins             :          0       0.00       0.00          0          0          0    0.00000   -1.00000    1.00000      0.900    0    0    0    0    0    0    0    1
  mutation         :          0       0.00       0.00          0          0          0    0.00000   -1.00000    1.00000      0.900    0    0    0    0    0    0    0    1
  localbranching   :          0       0.00       0.00          0          0          0    0.00000   -1.00000    1.00000      0.900    0    0    0    0    0    0    0    1
  crossover        :          0       0.00       0.00          0          0          0    0.00000   -1.00000    1.00000      0.900    0    0    0    0    0    0    0    1
  proximity        :          0       0.00       0.00          0          0          0    0.00000   -1.00000    1.00000      0.900    0    0    0    0    0    0    0    1
  zeroobjective    :          0       0.00       0.00          0          0          0    0.00000   -1.00000    1.00000      0.900    0    0    0    0    0    0    0    1
  dins             :          0       0.00       0.00          0          0          0    0.00000   -1.00000    1.00000      0.900    0    0    0    0    0    0    0    1
LP                 :       Time      Calls Iterations  Iter/call   Iter/sec  Time-0-It Calls-0-It    ItLimit
  primal LP        :       0.71          1          0       0.00       0.00       0.71          1
  dual LP          :       8.44         12      30503    2541.92    3614.10       0.00          0
  lex dual LP      :       0.00          0          0       0.00          -
  barrier LP       :       0.00          0          0       0.00          -       0.00          0
  resolve instable :       0.00          0          0       0.00          -
  diving/probing LP:       0.91          2       1515     757.50    1664.84
  strong branching :       0.00          0          0       0.00          -          -          -          0
    (at root node) :          -          0          0       0.00          -
  conflict analysis:       0.00          0          0       0.00          -
B&B Tree           :
  number of runs   :          1
  nodes            :          1 (0 internal, 1 leaves)
  feasible leaves  :          0
  infeas. leaves   :          0
  objective leaves :          1
  nodes (total)    :          1 (0 internal, 1 leaves)
  nodes left       :          0
  max depth        :          0
  max depth (total):          0
  backtracks       :          0 (0.0%)
  early backtracks :          0 (0.0%)
  nodes exc. ref.  :          0 (0.0%)
  delayed cutoffs  :          0
  repropagations   :          0 (0 domain reductions, 0 cutoffs)
  avg switch length:       2.00
  switching time   :       0.00
Root Node          :
  First LP value   : +3.30000000000000e+01
  First LP Iters   :      11171 (5220.09 Iter/sec)
  First LP Time    :       2.14
  Final Dual Bound : +3.30000000000000e+01
  Final Root Iters :      30503
  Root LP Estimate :                     -
Solution           :
  Solutions found  :          6 (5 improvements)
  First Solution   : +1.70000000000000e+02   (in run 1, after 1 nodes, 2.21 seconds, depth 14316, found by <locks>)
  Gap First Sol.   :     844.44 %
  Gap Last Sol.    :       0.00 %
  Primal Bound     : +3.30000000000000e+01   (in run 1, after 1 nodes, 14.87 seconds, depth 0, found by <rens>)
  Dual Bound       : +3.30000000000000e+01
  Gap              :       0.00 %
  Avg. Gap         :      40.05 % (597.18 primal-dual integral)
  Tree Data        : 1 nodes (1 visited, 0 inner, 1 leaves, 0 open), progress: 1.0000
Tree Estimation    :       estim       value       trend  resolution      smooth
  wbe              :           1           -           -           -           -
  tree profile     :          -1           -           -           -           -
  gap              :           1     1.00000     1.00000           1           1
  progress         :           1     1.00000     1.00000           1           1
  leaf-frequency   :           1     0.50000     1.00000           1           1
  ssg              :           1     0.00000    -1.00000           1           1
  open-nodes       :           1     0.00000     0.00000           1           1


SCIP> checksol

check best solution
solution is feasible in original problem
Violation          :    absolute    relative
  bounds           : 0.00000e+00 0.00000e+00
  integrality      : 0.00000e+00           -
  LP rows          : 0.00000e+00 0.00000e+00
  constraints      : 0.00000e+00 0.00000e+00

SCIP> write sol /local/tmp/bzfhende-tmpdir/bzfhende.MMMc.316_neos-824661.scip.M6440.enable_treeprofile.sol

written solution information to file </local/tmp/bzfhende-tmpdir/bzfhende.MMMc.316_neos-824661.scip.M640.enable_treeprofile.sol>

SCIP> quit

Disabling tree profile data collection
Read MPS: 1
MIP has 45390 vars and 18804 constraints
Read SOL: 1
Objective value computed by solver: 33

Integrality tolerance: 1/10000
Linear tolerance: 1/10000
Objective tolerance: 1/10000

Check SOL: Integrality 1 Constraints 1 Objective 1
Maximum violations: Integrality 0 Constraints 0 Objective 0
@04 1566516594
-----------------------------
Fr 23. Aug 01:29:54 CEST 2019
-----------------------------

=ready=
